; PUSH cw_3 SWAP1 POP PUSH cw_2 MLOAD SWAP1 => POP PUSH cw_2 MLOAD PUSH cw_3
(set-option :produce-proofs true)
; 
(set-info :status unknown)
(declare-fun storage_t ((_ BitVec 256) (_ BitVec 256) (_ BitVec 256) (_ BitVec 256) Int (_ BitVec 256)) (_ BitVec 256))
(declare-fun w_2 () (_ BitVec 256))
(declare-fun w_3 () (_ BitVec 256))
(declare-fun storage_s ((_ BitVec 256) (_ BitVec 256) (_ BitVec 256) (_ BitVec 256) Int (_ BitVec 256)) (_ BitVec 256))
(declare-fun exc_halt_t (Int) Bool)
(declare-fun exc_halt_s (Int) Bool)
(declare-fun stack_t ((_ BitVec 256) (_ BitVec 256) (_ BitVec 256) (_ BitVec 256) Int (_ BitVec 6)) (_ BitVec 256))
(declare-fun stack_s ((_ BitVec 256) (_ BitVec 256) (_ BitVec 256) (_ BitVec 256) Int (_ BitVec 6)) (_ BitVec 256))
(declare-fun sc_t (Int) (_ BitVec 6))
(declare-fun sc_s (Int) (_ BitVec 6))
(declare-fun used_gas_t ((_ BitVec 256) (_ BitVec 256) (_ BitVec 256) (_ BitVec 256) Int) Int)
(declare-fun used_gas_s ((_ BitVec 256) (_ BitVec 256) (_ BitVec 256) (_ BitVec 256) Int) Int)
(declare-fun f_MLOAD ((_ BitVec 256) (_ BitVec 256) (_ BitVec 256) (_ BitVec 256) (_ BitVec 256)) (_ BitVec 256))
(assert
 (exists ((x_0 (_ BitVec 256)) (x_MLOAD_0 (_ BitVec 256)) )(let (($x10555 (forall ((w (_ BitVec 256)) )(let ((?x8417 (storage_t x_0 w_3 w_2 x_MLOAD_0 4 w)))
 (let ((?x9356 (storage_s x_0 w_3 w_2 x_MLOAD_0 6 w)))
 (= ?x9356 ?x8417))))
 ))
 (let (($x7854 (exc_halt_t 4)))
 (let (($x772 (exc_halt_s 6)))
 (let (($x4404 (= $x772 $x7854)))
 (let (($x4717 (forall ((n (_ BitVec 6)) )(let ((?x4279 (stack_t x_0 w_3 w_2 x_MLOAD_0 4 n)))
 (let ((?x10863 (stack_s x_0 w_3 w_2 x_MLOAD_0 6 n)))
 (let (($x6636 (= ?x10863 ?x4279)))
 (let ((?x4818 (sc_t 4)))
 (let (($x3942 (bvsle ?x4818 n)))
 (or $x3942 $x6636)))))))
 ))
 (let ((?x4818 (sc_t 4)))
 (let ((?x926 (sc_s 6)))
 (let (($x7899 (= ?x926 ?x4818)))
 (let ((?x10385 (used_gas_t x_0 w_3 w_2 x_MLOAD_0 0)))
 (let ((?x4928 (used_gas_s x_0 w_3 w_2 x_MLOAD_0 0)))
 (let (($x2461 (= ?x4928 ?x10385)))
 (let (($x2619 (forall ((w (_ BitVec 256)) )(let ((?x366 (storage_t x_0 w_3 w_2 x_MLOAD_0 0 w)))
 (let ((?x5547 (storage_s x_0 w_3 w_2 x_MLOAD_0 0 w)))
 (= ?x5547 ?x366))))
 ))
 (let (($x56 (exc_halt_t 0)))
 (let (($x57 (exc_halt_s 0)))
 (let (($x58 (= $x57 $x56)))
 (let (($x10717 (forall ((n (_ BitVec 6)) )(let ((?x63 (sc_t 0)))
 (let (($x5223 (bvsle ?x63 n)))
 (let ((?x632 (stack_t x_0 w_3 w_2 x_MLOAD_0 0 n)))
 (let ((?x1883 (stack_s x_0 w_3 w_2 x_MLOAD_0 0 n)))
 (let (($x941 (= ?x1883 ?x632)))
 (or $x941 $x5223)))))))
 ))
 (let ((?x63 (sc_t 0)))
 (let ((?x72 (sc_s 0)))
 (let (($x73 (= ?x72 ?x63)))
 (let (($x3614 (exc_halt_t 3)))
 (let (($x5012 (or $x3614 (not (= ((_ extract 6 6) (bvadd (_ bv1 7) (concat (_ bv0 1) (sc_t 3)))) (_ bv0 1))))))
 (let (($x10360 (= $x7854 $x5012)))
 (let (($x1745 (forall ((w (_ BitVec 256)) )(let ((?x9676 (storage_t x_0 w_3 w_2 x_MLOAD_0 3 w)))
 (let ((?x8417 (storage_t x_0 w_3 w_2 x_MLOAD_0 4 w)))
 (= ?x8417 ?x9676))))
 ))
 (let (($x5927 (forall ((n (_ BitVec 6)) )(let ((?x2153 (stack_t x_0 w_3 w_2 x_MLOAD_0 3 n)))
 (let ((?x4279 (stack_t x_0 w_3 w_2 x_MLOAD_0 4 n)))
 (let ((?x11304 (sc_t 3)))
 (let (($x6674 (bvsle ?x11304 n)))
 (or $x6674 (= ?x4279 ?x2153)))))))
 ))
 (let (($x11775 (= ?x4818 (bvadd (_ bv1 6) (sc_t 3)))))
 (let (($x7139 (= (used_gas_t x_0 w_3 w_2 x_MLOAD_0 4) (+ 3 (used_gas_t x_0 w_3 w_2 x_MLOAD_0 3)))))
 (let (($x9316 (= $x3614 (or (exc_halt_t 2) (not (bvsle (_ bv0 6) (bvadd (_ bv63 6) (sc_t 2))))))))
 (let (($x5617 (forall ((w (_ BitVec 256)) )(let ((?x5419 (storage_t x_0 w_3 w_2 x_MLOAD_0 2 w)))
 (let ((?x9676 (storage_t x_0 w_3 w_2 x_MLOAD_0 3 w)))
 (= ?x9676 ?x5419))))
 ))
 (let (($x7667 (forall ((n (_ BitVec 6)) )(let ((?x2714 (sc_t 2)))
 (let ((?x4909 (bvadd (_ bv63 6) ?x2714)))
 (let (($x10496 (bvsle ?x4909 n)))
 (let ((?x10600 (stack_t x_0 w_3 w_2 x_MLOAD_0 2 n)))
 (let ((?x2153 (stack_t x_0 w_3 w_2 x_MLOAD_0 3 n)))
 (or (= ?x2153 ?x10600) $x10496)))))))
 ))
 (let ((?x2714 (sc_t 2)))
 (let ((?x11304 (sc_t 3)))
 (let (($x5926 (= ?x11304 ?x2714)))
 (let ((?x1469 (used_gas_t x_0 w_3 w_2 x_MLOAD_0 3)))
 (let ((?x485 (f_MLOAD x_0 w_3 w_2 x_MLOAD_0 (stack_t x_0 w_3 w_2 x_MLOAD_0 2 (bvadd (_ bv63 6) ?x2714)))))
 (let (($x1043 (not (= ((_ extract 6 6) (bvadd (_ bv1 7) (concat (_ bv0 1) (sc_t 1)))) (_ bv0 1)))))
 (let (($x8377 (exc_halt_t 1)))
 (let (($x2556 (exc_halt_t 2)))
 (let (($x731 (= $x2556 (or $x8377 $x1043))))
 (let (($x6450 (forall ((w (_ BitVec 256)) )(let ((?x616 (storage_t x_0 w_3 w_2 x_MLOAD_0 1 w)))
 (let ((?x5419 (storage_t x_0 w_3 w_2 x_MLOAD_0 2 w)))
 (= ?x5419 ?x616))))
 ))
 (let (($x7996 (forall ((n (_ BitVec 6)) )(let ((?x7154 (sc_t 1)))
 (let (($x9354 (bvsle ?x7154 n)))
 (let ((?x11386 (stack_t x_0 w_3 w_2 x_MLOAD_0 1 n)))
 (let ((?x10600 (stack_t x_0 w_3 w_2 x_MLOAD_0 2 n)))
 (or (= ?x10600 ?x11386) $x9354))))))
 ))
 (let (($x1803 (= ?x2714 (bvadd (_ bv1 6) (sc_t 1)))))
 (let ((?x9069 (used_gas_t x_0 w_3 w_2 x_MLOAD_0 2)))
 (let (($x5902 (= $x8377 (or $x56 (not (bvsle (_ bv0 6) (bvadd (_ bv63 6) ?x63)))))))
 (let (($x1296 (forall ((w (_ BitVec 256)) )(let ((?x366 (storage_t x_0 w_3 w_2 x_MLOAD_0 0 w)))
 (let ((?x616 (storage_t x_0 w_3 w_2 x_MLOAD_0 1 w)))
 (= ?x616 ?x366))))
 ))
 (let (($x4338 (forall ((n (_ BitVec 6)) )(let ((?x632 (stack_t x_0 w_3 w_2 x_MLOAD_0 0 n)))
 (let ((?x11386 (stack_t x_0 w_3 w_2 x_MLOAD_0 1 n)))
 (let ((?x63 (sc_t 0)))
 (let ((?x2879 (bvadd (_ bv63 6) ?x63)))
 (let (($x397 (bvsle ?x2879 n)))
 (or $x397 (= ?x11386 ?x632))))))))
 ))
 (let (($x10454 (= $x772 (or (exc_halt_s 5) (not (bvsle (_ bv0 6) (bvadd (_ bv62 6) (sc_s 5))))))))
 (let (($x7314 (forall ((w (_ BitVec 256)) )(let ((?x7174 (storage_s x_0 w_3 w_2 x_MLOAD_0 5 w)))
 (let ((?x9356 (storage_s x_0 w_3 w_2 x_MLOAD_0 6 w)))
 (= ?x9356 ?x7174))))
 ))
 (let (($x11547 (forall ((n (_ BitVec 6)) )(let ((?x2529 (stack_s x_0 w_3 w_2 x_MLOAD_0 5 n)))
 (let ((?x10863 (stack_s x_0 w_3 w_2 x_MLOAD_0 6 n)))
 (let ((?x4319 (sc_s 5)))
 (let ((?x10793 (bvadd (_ bv62 6) ?x4319)))
 (let (($x832 (bvsle ?x10793 n)))
 (or $x832 (= ?x10863 ?x2529))))))))
 ))
 (let ((?x4319 (sc_s 5)))
 (let (($x5117 (= ?x926 ?x4319)))
 (let (($x3921 (= (used_gas_s x_0 w_3 w_2 x_MLOAD_0 6) (+ 3 (used_gas_s x_0 w_3 w_2 x_MLOAD_0 5)))))
 (let ((?x5044 (bvadd (_ bv63 6) ?x4319)))
 (let ((?x8862 (stack_s x_0 w_3 w_2 x_MLOAD_0 5 ?x5044)))
 (let (($x1721 (= (stack_s x_0 w_3 w_2 x_MLOAD_0 6 (bvadd (_ bv63 6) ?x926)) (stack_s x_0 w_3 w_2 x_MLOAD_0 5 (bvadd (_ bv62 6) ?x4319)))))
 (let (($x11317 (exc_halt_s 5)))
 (let (($x3974 (= $x11317 (or (exc_halt_s 4) (not (bvsle (_ bv0 6) (bvadd (_ bv63 6) (sc_s 4))))))))
 (let (($x11325 (forall ((w (_ BitVec 256)) )(let ((?x3926 (storage_s x_0 w_3 w_2 x_MLOAD_0 4 w)))
 (let ((?x7174 (storage_s x_0 w_3 w_2 x_MLOAD_0 5 w)))
 (= ?x7174 ?x3926))))
 ))
 (let (($x11192 (forall ((n (_ BitVec 6)) )(let ((?x10323 (stack_s x_0 w_3 w_2 x_MLOAD_0 4 n)))
 (let ((?x2529 (stack_s x_0 w_3 w_2 x_MLOAD_0 5 n)))
 (let ((?x4305 (sc_s 4)))
 (let ((?x11384 (bvadd (_ bv63 6) ?x4305)))
 (let (($x716 (bvsle ?x11384 n)))
 (or $x716 (= ?x2529 ?x10323))))))))
 ))
 (let ((?x4305 (sc_s 4)))
 (let (($x1176 (= ?x4319 ?x4305)))
 (let ((?x7607 (used_gas_s x_0 w_3 w_2 x_MLOAD_0 5)))
 (let ((?x10583 (f_MLOAD x_0 w_3 w_2 x_MLOAD_0 (stack_s x_0 w_3 w_2 x_MLOAD_0 4 (bvadd (_ bv63 6) ?x4305)))))
 (let (($x3091 (not (= ((_ extract 6 6) (bvadd (_ bv1 7) (concat (_ bv0 1) (sc_s 3)))) (_ bv0 1)))))
 (let (($x292 (exc_halt_s 3)))
 (let (($x7172 (exc_halt_s 4)))
 (let (($x5193 (= $x7172 (or $x292 $x3091))))
 (let (($x4026 (forall ((w (_ BitVec 256)) )(let ((?x679 (storage_s x_0 w_3 w_2 x_MLOAD_0 3 w)))
 (let ((?x3926 (storage_s x_0 w_3 w_2 x_MLOAD_0 4 w)))
 (= ?x3926 ?x679))))
 ))
 (let (($x9965 (forall ((n (_ BitVec 6)) )(let ((?x275 (sc_s 3)))
 (let (($x8287 (bvsle ?x275 n)))
 (let ((?x6362 (stack_s x_0 w_3 w_2 x_MLOAD_0 3 n)))
 (let ((?x10323 (stack_s x_0 w_3 w_2 x_MLOAD_0 4 n)))
 (or (= ?x10323 ?x6362) $x8287))))))
 ))
 (let (($x10757 (= ?x4305 (bvadd (_ bv1 6) (sc_s 3)))))
 (let ((?x6682 (used_gas_s x_0 w_3 w_2 x_MLOAD_0 4)))
 (let (($x8993 (= $x292 (or (exc_halt_s 2) (not (bvsle (_ bv0 6) (bvadd (_ bv63 6) (sc_s 2))))))))
 (let (($x9116 (forall ((w (_ BitVec 256)) )(let ((?x4262 (storage_s x_0 w_3 w_2 x_MLOAD_0 2 w)))
 (let ((?x679 (storage_s x_0 w_3 w_2 x_MLOAD_0 3 w)))
 (= ?x679 ?x4262))))
 ))
 (let (($x1920 (forall ((n (_ BitVec 6)) )(let ((?x2842 (stack_s x_0 w_3 w_2 x_MLOAD_0 2 n)))
 (let ((?x6362 (stack_s x_0 w_3 w_2 x_MLOAD_0 3 n)))
 (or (bvsle (bvadd (_ bv63 6) (sc_s 2)) n) (= ?x6362 ?x2842)))))
 ))
 (let ((?x7679 (used_gas_s x_0 w_3 w_2 x_MLOAD_0 3)))
 (let (($x247 (exc_halt_s 2)))
 (let (($x8623 (= $x247 (or (exc_halt_s 1) (not (bvsle (_ bv0 6) (bvadd (_ bv62 6) (sc_s 1))))))))
 (let (($x4312 (forall ((w (_ BitVec 256)) )(let ((?x11584 (storage_s x_0 w_3 w_2 x_MLOAD_0 1 w)))
 (let ((?x4262 (storage_s x_0 w_3 w_2 x_MLOAD_0 2 w)))
 (= ?x4262 ?x11584))))
 ))
 (let (($x3618 (forall ((n (_ BitVec 6)) )(let ((?x2982 (stack_s x_0 w_3 w_2 x_MLOAD_0 1 n)))
 (let ((?x2842 (stack_s x_0 w_3 w_2 x_MLOAD_0 2 n)))
 (or (bvsle (bvadd (_ bv62 6) (sc_s 1)) n) (= ?x2842 ?x2982)))))
 ))
 (let ((?x154 (sc_s 1)))
 (let ((?x218 (sc_s 2)))
 (let (($x5559 (= ?x218 ?x154)))
 (let ((?x10010 (used_gas_s x_0 w_3 w_2 x_MLOAD_0 2)))
 (let (($x11695 (= (stack_s x_0 w_3 w_2 x_MLOAD_0 2 (bvadd (_ bv62 6) ?x218)) (stack_s x_0 w_3 w_2 x_MLOAD_0 1 (bvadd (_ bv63 6) ?x154)))))
 (let (($x3560 (= (stack_s x_0 w_3 w_2 x_MLOAD_0 2 (bvadd (_ bv63 6) ?x218)) (stack_s x_0 w_3 w_2 x_MLOAD_0 1 (bvadd (_ bv62 6) ?x154)))))
 (let (($x189 (exc_halt_s 1)))
 (let (($x11129 (= $x189 (or $x57 (not (= ((_ extract 6 6) (bvadd (_ bv1 7) (concat (_ bv0 1) ?x72))) (_ bv0 1)))))))
 (let (($x9002 (forall ((w (_ BitVec 256)) )(let ((?x5547 (storage_s x_0 w_3 w_2 x_MLOAD_0 0 w)))
 (let ((?x11584 (storage_s x_0 w_3 w_2 x_MLOAD_0 1 w)))
 (= ?x11584 ?x5547))))
 ))
 (let (($x10108 (forall ((n (_ BitVec 6)) )(let ((?x1883 (stack_s x_0 w_3 w_2 x_MLOAD_0 0 n)))
 (let ((?x2982 (stack_s x_0 w_3 w_2 x_MLOAD_0 1 n)))
 (let ((?x72 (sc_s 0)))
 (let (($x1744 (bvsle ?x72 n)))
 (or $x1744 (= ?x2982 ?x1883)))))))
 ))
 (let (($x6960 (= ?x154 (bvadd (_ bv1 6) ?x72))))
 (let (($x7452 (forall ((w0 (_ BitVec 256)) )(let (($x3928 (= (stack_s x_0 w_3 w_2 x_MLOAD_0 4 (bvadd (_ bv63 6) (sc_s 4))) w0)))
 (let ((?x6896 (f_MLOAD x_0 w_3 w_2 x_MLOAD_0 w0)))
 (= ?x6896 (ite $x3928 x_MLOAD_0 (_ bv0 256))))))
 ))
 (let (($x11464 (forall ((w (_ BitVec 256)) )(let ((?x5547 (storage_s x_0 w_3 w_2 x_MLOAD_0 0 w)))
 (= ?x5547 (_ bv0 256))))
 ))
 (let (($x2208 (= ?x4928 0)))
 (let (($x4616 (not $x57)))
 (let (($x9022 (= (stack_s x_0 w_3 w_2 x_MLOAD_0 0 (_ bv0 6)) x_0)))
 (let (($x7315 (= ?x72 (_ bv1 6))))
 (and $x7315 $x9022 $x4616 $x2208 $x11464 $x7452 (= (stack_s x_0 w_3 w_2 x_MLOAD_0 1 ?x72) w_3) (= (used_gas_s x_0 w_3 w_2 x_MLOAD_0 1) (+ 3 ?x4928)) $x6960 $x10108 $x9002 $x11129 $x3560 $x11695 (= ?x10010 (+ 3 (used_gas_s x_0 w_3 w_2 x_MLOAD_0 1))) $x5559 $x3618 $x4312 $x8623 (= ?x7679 (+ 2 ?x10010)) (= (sc_s 3) (bvadd (_ bv63 6) ?x218)) $x1920 $x9116 $x8993 (= (stack_s x_0 w_3 w_2 x_MLOAD_0 4 (sc_s 3)) w_2) (= ?x6682 (+ 3 ?x7679)) $x10757 $x9965 $x4026 $x5193 (= ?x8862 ?x10583) (= ?x7607 (+ 3 ?x6682)) $x1176 $x11192 $x11325 $x3974 $x1721 (= (stack_s x_0 w_3 w_2 x_MLOAD_0 6 (bvadd (_ bv62 6) ?x926)) ?x8862) $x3921 $x5117 $x11547 $x7314 $x10454 (= (used_gas_t x_0 w_3 w_2 x_MLOAD_0 1) (+ 2 ?x10385)) (= (sc_t 1) (bvadd (_ bv63 6) ?x63)) $x4338 $x1296 $x5902 (= (stack_t x_0 w_3 w_2 x_MLOAD_0 2 (sc_t 1)) w_2) (= ?x9069 (+ 3 (used_gas_t x_0 w_3 w_2 x_MLOAD_0 1))) $x1803 $x7996 $x6450 $x731 (= (stack_t x_0 w_3 w_2 x_MLOAD_0 3 (bvadd (_ bv63 6) ?x11304)) ?x485) (= ?x1469 (+ 3 ?x9069)) $x5926 $x7667 $x5617 $x9316 (= (stack_t x_0 w_3 w_2 x_MLOAD_0 4 ?x11304) w_3) $x7139 $x11775 $x5927 $x1745 $x10360 $x73 $x10717 $x58 $x2619 $x2461 (not (and $x7899 $x4717 $x4404 $x10555)))))))))))))))))))))))))))))))))))))))))))))))))))))))))))))))))))))))))))))))))))))))))))))))))))
 )
(check-sat)
(get-proof)
